(set-logic ALL)
(declare-const k Int)
(declare-fun s () (_ BitVec k))
(declare-fun t () (_ BitVec k))
(assert (distinct (bvlshr s (bvudiv t (bvshl (_ bv0 k) t))) (bvshl s (bvlshr t (bvshl t t)))))
(check-sat)
